<?xml version = "1.0" standalone="yes"?>
<!-- This file has been generated by DOcplex version 2.23.222  -->
<CPLEXSolution version="1.0">
 <header
   problemName="CVRP"
   objectiveValue="12147.9"
  />
 <variables>
  <variable name="x_0_1" index="0" value="1.00000"/>
  <variable name="x_0_3" index="2" value="1.00000"/>
  <variable name="x_0_5" index="4" value="1.00000"/>
  <variable name="x_0_8" index="7" value="1.00000"/>
  <variable name="x_0_9" index="8" value="1.00000"/>
  <variable name="x_0_10" index="9" value="1.00000"/>
  <variable name="x_0_11" index="10" value="1.00000"/>
  <variable name="x_0_12" index="11" value="1.00000"/>
  <variable name="x_1_13" index="25" value="1.00000"/>
  <variable name="x_2_0" index="26" value="1.00000"/>
  <variable name="x_3_0" index="39" value="1.00000"/>
  <variable name="x_4_0" index="52" value="1.00000"/>
  <variable name="x_5_2" index="67" value="1.00000"/>
  <variable name="x_6_0" index="78" value="1.00000"/>
  <variable name="x_7_4" index="95" value="1.00000"/>
  <variable name="x_8_6" index="110" value="1.00000"/>
  <variable name="x_9_0" index="117" value="1.00000"/>
  <variable name="x_10_0" index="130" value="1.00000"/>
  <variable name="x_11_7" index="150" value="1.00000"/>
  <variable name="x_12_0" index="156" value="1.00000"/>
  <variable name="x_13_0" index="169" value="1.00000"/>
  <variable name="u_1" index="182" value="64.00000"/>
  <variable name="u_2" index="183" value="65.00000"/>
  <variable name="u_3" index="184" value="49.00000"/>
  <variable name="u_4" index="185" value="65.00000"/>
  <variable name="u_5" index="186" value="29.00000"/>
  <variable name="u_6" index="187" value="65.00000"/>
  <variable name="u_7" index="188" value="27.00000"/>
  <variable name="u_8" index="189" value="47.00000"/>
  <variable name="u_9" index="190" value="60.00000"/>
  <variable name="u_10" index="191" value="43.00000"/>
  <variable name="u_11" index="192" value="25.00000"/>
  <variable name="u_12" index="193" value="65.00000"/>
  <variable name="u_13" index="194" value="65.00000"/>
 </variables>
</CPLEXSolution>
